10
20
384739
0
0
32 45 47 54 50 52 55 63 52 62 58 64 45 51 57 47 47 49 50 48
1
0
34 43 48 54 52 53 55 67 53 63 59 67 44 47 62 46 48 49 47 53
2
0
34 45 47 56 50 57 56 61 50 65 56 63 44 49 63 48 44 50 46 47
3
0
35 47 47 58 48 49 54 63 54 63 56 65 44 49 58 46 49 51 43 47
4
0
33 44 48 59 51 57 54 61 51 64 58 64 45 51 57 47 46 51 47 48
5
0
34 44 49 56 50 52 53 63 48 60 57 65 45 48 60 50 46 52 46 47
6
0
36 47 50 56 46 56 57 62 52 66 54 67 44 52 63 48 48 50 49 44
7
0
34 44 51 54 53 56 55 67 53 62 54 65 45 49 59 48 48 50 45 48
8
0
38 47 49 55 46 54 55 64 51 61 57 66 42 53 61 48 47 52 48 46
9
0
33 45 48 58 50 53 54 59 51 61 57 63 40 54 60 51 47 48 47 49
